#=======================================================
#FHI-aims file: geometry-cell.in
#Created using the Atomic Simulation Environment (ASE)
#=======================================================
lattice_vector 30.0 0.0 0.0
lattice_vector 0.0 30.0 0.0
lattice_vector 0.0 0.0 30.0

atom 12.1464900000000000 15.0064799999999998 1.0000000000000000 C
atom 11.4180399999999995 13.7912400000000002 1.0000000000000000 C
atom 12.1095899999999990 12.5912400000000009 1.0000000000000000 C
atom 13.5020509999999998 12.5803600000000007 1.0000000000000000 C
atom 14.2641700000000000 13.7502899999999997 1.0000000000000000 C
atom 13.5723899999999986 15.0003600000000006 1.0000000000000000 C
atom 14.2733599999999985 16.2464700000000022 1.0000000000000000 C
atom 13.5248799999999996 17.4214990000000007 1.0000000000000000 C
atom 12.1357199999999992 17.4269889999999990 1.0000000000000000 C
atom 11.4349509999999981 16.2302800000000005 1.0000000000000000 C
atom 16.4345490000000005 15.0003600000000006 1.0000000000000000 C
atom 15.7347399999999986 13.7532500000000013 1.0000000000000000 C
atom 16.4858100000000007 12.5798699999999997 1.0000000000000000 C
atom 17.8766089999999984 12.5774900000000009 1.0000000000000000 C
atom 18.5742879999999992 13.7753910000000008 1.0000000000000000 C
atom 17.8603899999999989 14.9971700000000006 1.0000000000000000 C
atom 18.5858089999999976 16.2150199999999991 1.0000000000000000 C
atom 17.8928189999999994 17.4148780000000016 1.0000000000000000 C
atom 16.5012489999999978 17.4214000000000020 1.0000000000000000 C
atom 15.7424799999999987 16.2498600000000017 1.0000000000000000 C
atom 20.0663199999999975 13.7719800000000010 1.0000000000000000 C
atom 20.7806399999999982 14.9752900000000011 1.0000000000000000 O
atom 20.0827090000000013 16.2029600000000009 1.0000000000000000 C
atom 9.2253699999999981 15.0384000000000011 1.0000000000000000 O
atom 9.9202899999999978 13.8088600000000010 1.0000000000000000 C
atom 9.9429419999999986 16.2395379999999996 1.0000000000000000 C
atom 20.7950599999999994 17.1513090000000012 1.0000000000000000 O
atom 20.7561699999999973 12.8021910000000005 1.0000000000000000 O
atom 9.2560520000000004 17.2116000000000007 1.0000000000000000 O
atom 9.2049399999999988 12.8628900000000002 1.0000000000000000 O
atom 11.5960399999999986 11.6422010000000000 1.0000000000000000 H
atom 13.9768200000000000 11.6121300000000005 1.0000000000000000 H
atom 14.0102799999999998 18.3773499999999999 1.0000000000000000 H
atom 11.6190099999999994 18.3747100000000003 1.0000000000000000 H
atom 16.0020899999999990 11.6230910000000005 1.0000000000000000 H
atom 18.3956680000000006 11.6309700000000014 1.0000000000000000 H
atom 18.4055800000000005 18.3645199999999988 1.0000000000000000 H
atom 16.0235400000000006 18.3878699999999995 1.0000000000000000 H
