&FORCE_EVAL
  METHOD Quickstep
  &DFT
    LSD                           ! Requests a spin-polarized calculation for unpaired electrons
    MULTIPLICITY 2                ! Multiplicity = 2S+1 (S= total spin momentum)
    &POISSON
       PERIODIC NONE
       PSOLVER MT
    &END POISSON
    &SCF
      &MIXING
        ALPHA 0.2
        BETA  1.0
      &END MIXING
    &END SCF
    &XC
      &XC_FUNCTIONAL Pade
      &END XC_FUNCTIONAL
    &END XC
    &PRINT
      &MO ON
        EIGVECS
        CARTESIAN
        FILENAME cartesian-mos
        &EACH
          QS_SCF 0
        &END EACH
      &END MO
    &END PRINT
  &END DFT
  &SUBSYS
    &CELL
      ABC 30.0 30.0 10.0
      PERIODIC NONE
    &END CELL
    &TOPOLOGY
      COORD_FILE_NAME CuPe.xyz
      COORD_FILE_FORMAT xyz
    &END TOPOLOGY
    &KIND H
      BASIS_SET DZVP-GTH-PADE
      POTENTIAL GTH-PADE
    &END KIND
    &KIND C
      BASIS_SET DZVP-GTH-PADE
      POTENTIAL GTH-PADE
    &END KIND
    &KIND N
      BASIS_SET DZVP-GTH-PADE
      POTENTIAL GTH-PADE
    &END KIND
    &KIND O
      BASIS_SET DZVP-GTH-PADE
      POTENTIAL GTH-PADE
    &END KIND
    &KIND Cu
      BASIS_SET DZV-GTH-PADE
      POTENTIAL GTH-PADE
    &END KIND
  &END SUBSYS
&END FORCE_EVAL
&GLOBAL
  PROJECT CuPc
&END GLOBAL
