#  Final atomic structure:
#                         x [A]             y [A]             z [A]
lattice_vector 30.0 0.0 0.0
lattice_vector 0.0 30.0 0.0
lattice_vector 0.0 0.0 30.0
            atom         0.02835813        0.02174327        0.03956731  Cu
            atom         2.42510472        2.41382778        0.04334052  N
            atom         2.42053649       -2.37502222        0.03809358  N
            atom        -2.36840138       -2.37032609        0.03789664  N
            atom        -2.36376856        2.41856754        0.04288684  N
            atom         1.99505098        0.01980433        0.04001543  N
            atom         2.79910521       -1.10056036        0.03924752  C
            atom         2.80117404        1.13863191        0.04175474  C
            atom         4.19850094       -0.68737181        0.04046441  C
            atom         4.19975693        0.72290623        0.04208737  C
            atom         5.39358907       -1.41220176        0.04066074  C
            atom         5.39600496        1.44579320        0.04400533  C
            atom         6.58874268       -0.68912562        0.04249076  C
            atom         6.58995706        0.72076381        0.04420453  C
            atom         5.38319708       -2.50239161        0.03926113  H
            atom         5.38730736        2.53599867        0.04577942  H
            atom         7.54290653        1.25186070        0.04578582  H
            atom         7.54081153       -1.22180240        0.04269868  H
            atom         0.02648516       -1.94487715        0.03776052  N
            atom        -1.09391951       -2.74886032        0.03746034  C
            atom         1.14531105       -2.75106324        0.03760825  C
            atom        -0.68082083       -4.14824586        0.03714193  C
            atom         0.72946263       -4.14964118        0.03727571  C
            atom        -1.40584775       -5.34319933        0.03699089  C
            atom         1.45214677       -5.34602818        0.03729444  C
            atom        -0.68296349       -6.53846211        0.03727025  C
            atom         0.72692504       -6.53987180        0.03749425  C
            atom        -2.49603665       -5.33264350        0.03594207  H
            atom         2.54235448       -5.33752609        0.03733033  H
            atom         1.25786770       -7.49290762        0.03772354  H
            atom        -1.21580426       -7.49043998        0.03721674  H
            atom        -1.93832539        0.02368973        0.03972152  N
            atom        -2.74230494        1.14408165        0.04135067  C
            atom        -2.74450695       -1.09513290        0.03905388  C
            atom        -4.14169540        0.73098809        0.04172899  C
            atom        -4.14310059       -0.67929737        0.04028803  C
            atom        -5.33661813        1.45606480        0.04388263  C
            atom        -5.33952260       -1.40192331        0.04092229  C
            atom        -6.53191016        0.73323554        0.04430886  C
            atom        -6.53334312       -0.67664974        0.04290532  C
            atom        -5.32593689        2.54625278        0.04517379  H
            atom        -5.33117064       -2.49213165        0.04084137  H
            atom        -7.48638745       -1.20757908        0.04363889  H
            atom        -7.48387468        1.26609846        0.04598165  H
            atom         0.03023095        1.98838476        0.04193478  N
            atom         1.15063471        2.79233755        0.04358065  C
            atom        -1.08856404        2.79462097        0.04333882  C
            atom         0.73761224        4.19171348        0.04620310  C
            atom        -0.67266131        4.19320267        0.04604084  C
            atom         1.46280434        5.38655094        0.04905891  C
            atom        -1.39519675        5.38968180        0.04876731  C
            atom         0.74006912        6.58189080        0.05169483  C
            atom        -0.66982104        6.58343676        0.05149159  C
            atom         2.55299224        5.37579733        0.04999435  H
            atom        -2.48540487        5.38135355        0.04858023  H
            atom        -1.20064980        7.53653214        0.05363207  H
            atom         1.27301504        7.53380608        0.05408157  H

